(set-info :source |printed by MathSAT|)
(declare-fun call_synapse.ite12 () Int)
(declare-fun call_synapse.ite8 () Int)
(declare-fun call_synapse.ite10 () Int)
(declare-fun call_synapse.mem_init_s () Int)
(declare-fun call_synapse.ite () Int)
(declare-fun call_First.First () Int)
(declare-fun call_synapse.flby2 () Int)
(declare-fun param_e_s3 () Bool)
(declare-fun call_synapse.ite4 () Int)
(declare-fun param_e_s2 () Bool)
(declare-fun call_synapse.ite11 () Int)
(declare-fun call_synapse.ite6 () Int)
(declare-fun mem_init_s () Int)
(declare-fun call_synapse.ite2 () Int)
(declare-fun call_synapse.ite13 () Int)
(declare-fun invalid_s () Int)
(declare-fun call_synapse.ite18 () Int)
(declare-fun _OK_ () Bool)
(declare-fun call_synapse.ite14 () Int)
(declare-fun call_synapse.invalid_s () Int)
(declare-fun call_synapse.ite15 () Int)
(declare-fun call_synapse.garde_s3 () Bool)
(declare-fun call_synapse.flby4 () Int)
(declare-fun call_Sofar.Sofar () Bool)
(declare-fun param_init_invalid_s () Int)
(declare-fun call_synapse.ite7 () Int)
(declare-fun param_e_s1 () Bool)
(declare-fun call_Sofar.flby () Bool)
(declare-fun call_synapse.dirty_s () Int)
(declare-fun call_synapse.ite5 () Int)
(declare-fun call_synapse.garde_s2 () Bool)
(declare-fun call_synapse.ite17 () Int)
(declare-fun dirty_s () Int)
(declare-fun call_synapse.ite16 () Int)
(declare-fun call_synapse.ite9 () Int)
(declare-fun call_synapse.flby3 () Int)
(declare-fun call_synapse.ite3 () Int)
(declare-fun call_excludes3.excludes () Bool)
(declare-fun env () Bool)
(declare-fun call_First.flby () Int)
(declare-fun call_synapse.valid_s () Int)
(declare-fun call_synapse.flby () Int)
(declare-fun call_synapse.garde_s1 () Bool)
(declare-fun valid_s () Int)
(define-fun .def_563 () Bool (= call_First.flby call_First.First))
(define-fun .def_561 () Bool (= call_Sofar.flby call_Sofar.Sofar))
(define-fun .def_556 () Bool (and param_e_s3 param_e_s2))
(define-fun .def_554 () Bool (and param_e_s3 param_e_s1))
(define-fun .def_553 () Bool (and param_e_s1 param_e_s2))
(define-fun .def_555 () Bool (or .def_553 .def_554))
(define-fun .def_557 () Bool (or .def_555 .def_556))
(define-fun .def_558 () Bool (not .def_557))
(define-fun .def_559 () Bool (= call_excludes3.excludes .def_558))
(define-fun .def_551 () Bool (= call_synapse.flby call_synapse.mem_init_s))
(define-fun .def_549 () Bool (= call_synapse.flby4 call_synapse.dirty_s))
(define-fun .def_547 () Bool (= call_synapse.flby3 call_synapse.valid_s))
(define-fun .def_545 () Bool (= call_synapse.flby2 call_synapse.invalid_s))
(define-fun .def_541 () Bool (= call_synapse.ite16 call_synapse.ite17))
(define-fun .def_542 () Bool (or param_e_s2 .def_541))
(define-fun .def_538 () Bool (= call_synapse.ite14 call_synapse.ite17))
(define-fun .def_529 () Bool (not param_e_s2))
(define-fun .def_539 () Bool (or .def_529 .def_538))
(define-fun .def_535 () Bool (= call_synapse.ite10 call_synapse.ite11))
(define-fun .def_536 () Bool (or param_e_s2 .def_535))
(define-fun .def_532 () Bool (= call_synapse.ite8 call_synapse.ite11))
(define-fun .def_533 () Bool (or .def_529 .def_532))
(define-fun .def_528 () Bool (= call_synapse.ite5 call_synapse.ite2))
(define-fun .def_530 () Bool (or .def_528 .def_529))
(define-fun .def_524 () Bool (= call_synapse.ite4 call_synapse.ite5))
(define-fun .def_526 () Bool (or .def_524 param_e_s2))
(define-fun .def_531 () Bool (and .def_526 .def_530))
(define-fun .def_534 () Bool (and .def_531 .def_533))
(define-fun .def_537 () Bool (and .def_534 .def_536))
(define-fun .def_540 () Bool (and .def_537 .def_539))
(define-fun .def_543 () Bool (and .def_540 .def_542))
(define-fun .def_520 () Bool (= call_synapse.ite18 call_synapse.ite17))
(define-fun .def_521 () Bool (or param_e_s1 .def_520))
(define-fun .def_516 () Bool (= call_synapse.ite13 call_synapse.ite18))
(define-fun .def_503 () Bool (not param_e_s1))
(define-fun .def_517 () Bool (or .def_503 .def_516))
(define-fun .def_512 () Bool (= call_synapse.ite12 call_synapse.ite11))
(define-fun .def_513 () Bool (or param_e_s1 .def_512))
(define-fun .def_508 () Bool (= call_synapse.ite7 call_synapse.ite12))
(define-fun .def_509 () Bool (or .def_503 .def_508))
(define-fun .def_502 () Bool (= call_synapse.ite6 call_synapse.ite))
(define-fun .def_504 () Bool (or .def_502 .def_503))
(define-fun .def_498 () Bool (= call_synapse.ite6 call_synapse.ite5))
(define-fun .def_500 () Bool (or .def_498 param_e_s1))
(define-fun .def_505 () Bool (and .def_500 .def_504))
(define-fun .def_510 () Bool (and .def_505 .def_509))
(define-fun .def_514 () Bool (and .def_510 .def_513))
(define-fun .def_518 () Bool (and .def_514 .def_517))
(define-fun .def_522 () Bool (and .def_518 .def_521))
(define-fun .def_494 () Bool (= env call_Sofar.Sofar))
(define-fun .def_491 () Bool (= call_synapse.mem_init_s mem_init_s))
(define-fun .def_488 () Bool (= dirty_s call_synapse.dirty_s))
(define-fun .def_484 () Bool (= valid_s call_synapse.valid_s))
(define-fun .def_480 () Bool (= invalid_s call_synapse.invalid_s))
(define-fun .def_476 () Bool (<= invalid_s call_First.First))
(define-fun .def_473 () Bool (not env))
(define-fun .def_477 () Bool (or .def_473 .def_476))
(define-fun .def_478 () Bool (= _OK_ .def_477))
(define-fun .def_481 () Bool (and .def_478 .def_480))
(define-fun .def_485 () Bool (and .def_481 .def_484))
(define-fun .def_489 () Bool (and .def_485 .def_488))
(define-fun .def_492 () Bool (and .def_489 .def_491))
(define-fun .def_495 () Bool (and .def_492 .def_494))
(define-fun .def_523 () Bool (and .def_495 .def_522))
(define-fun .def_544 () Bool (and .def_523 .def_543))
(define-fun .def_546 () Bool (and .def_544 .def_545))
(define-fun .def_548 () Bool (and .def_546 .def_547))
(define-fun .def_550 () Bool (and .def_548 .def_549))
(define-fun .def_552 () Bool (and .def_550 .def_551))
(define-fun .def_560 () Bool (and .def_552 .def_559))
(define-fun .def_562 () Bool (and .def_560 .def_561))
(define-fun .def_564 () Bool (and .def_562 .def_563))
(define-fun .def_469 () Bool (= param_init_invalid_s call_First.flby))
(define-fun .def_462 () Bool (<= 0 param_init_invalid_s))
(define-fun .def_464 () Bool (and .def_462 call_excludes3.excludes))
(define-fun .def_466 () Bool (= .def_464 call_Sofar.flby))
(define-fun .def_460 () Bool (= call_synapse.flby4 0))
(define-fun .def_457 () Bool (= call_synapse.flby3 0))
(define-fun .def_454 () Bool (= call_synapse.flby2 call_synapse.mem_init_s))
(define-fun .def_450 () Bool (= param_init_invalid_s call_synapse.flby))
(define-fun .def_444 () Bool (= call_synapse.ite9 0))
(define-fun .def_442 () Bool (not call_synapse.garde_s3))
(define-fun .def_445 () Bool (or .def_442 .def_444))
(define-fun .def_440 () Bool (= call_synapse.ite15 1))
(define-fun .def_443 () Bool (or .def_440 .def_442))
(define-fun .def_446 () Bool (and .def_443 .def_445))
(define-fun .def_436 () Bool (= call_synapse.ite8 0))
(define-fun .def_433 () Bool (not call_synapse.garde_s2))
(define-fun .def_437 () Bool (or .def_433 .def_436))
(define-fun .def_431 () Bool (= call_synapse.ite14 1))
(define-fun .def_434 () Bool (or .def_431 .def_433))
(define-fun .def_438 () Bool (and .def_434 .def_437))
(define-fun .def_427 () Bool (= call_synapse.ite13 0))
(define-fun .def_425 () Bool (not call_synapse.garde_s1))
(define-fun .def_428 () Bool (or .def_425 .def_427))
(define-fun .def_421 () Bool (= call_synapse.ite15 call_synapse.ite16))
(define-fun .def_412 () Bool (not param_e_s3))
(define-fun .def_422 () Bool (or .def_412 .def_421))
(define-fun .def_416 () Bool (= call_synapse.ite3 call_synapse.ite4))
(define-fun .def_417 () Bool (or .def_412 .def_416))
(define-fun .def_410 () Bool (= call_synapse.ite9 call_synapse.ite10))
(define-fun .def_413 () Bool (or .def_410 .def_412))
(define-fun .def_418 () Bool (and .def_413 .def_417))
(define-fun .def_423 () Bool (and .def_418 .def_422))
(define-fun .def_429 () Bool (and .def_423 .def_428))
(define-fun .def_439 () Bool (and .def_429 .def_438))
(define-fun .def_447 () Bool (and .def_439 .def_446))
(define-fun .def_451 () Bool (and .def_447 .def_450))
(define-fun .def_455 () Bool (and .def_451 .def_454))
(define-fun .def_458 () Bool (and .def_455 .def_457))
(define-fun .def_461 () Bool (and .def_458 .def_460))
(define-fun .def_467 () Bool (and .def_461 .def_466))
(define-fun .def_470 () Bool (and .def_467 .def_469))
(define-fun .def_565 () Bool (and .def_470 .def_564))
(assert .def_565)
